
Starting CP-SAT solver v9.15.6755
Parameters: random_seed: 2026073752 max_time_in_seconds: 6939.9999993926676 log_search_progress: true cp_model_presolve: true linearization_level: 2 num_search_workers: 4 cp_model_probing_level: 2 symmetry_level: 2

Initial satisfaction model '': (model_fingerprint: 0xe64731efa58482d9)
#Variables: 724 (608 primary variables)
  - 724 Booleans in [0,1]
#kBoolAnd: 110 (#enforced: 110) (#literals: 330)
#kBoolOr: 110 (#enforced: 110) (#literals: 220)
#kExactlyOne: 87 (#literals: 261)
#kLinear1: 32 (#enforced: 6)
#kLinear2: 336 (#enforced: 336) (#complex_domain: 110)
#kLinear3: 1'600 (#enforced: 6)
#kLinearN: 1'132 (#enforced: 243) (#terms: 9'111)

Starting presolve at 0.00s
  7.17e-04s  0.00e+00d  [DetectDominanceRelations] 
  8.93e-03s  0.00e+00d  [PresolveToFixPoint] #num_loops=3 #num_dual_strengthening=1 
  3.69e-05s  0.00e+00d  [ExtractEncodingFromLinear] #potential_supersets=86 
  2.91e-04s  0.00e+00d  [DetectDuplicateColumns] 
  1.04e-04s  0.00e+00d  [DetectDuplicateConstraints] #duplicates=5 
[Symmetry] Graph for symmetry has 4'868 nodes and 15'706 arcs.
[Symmetry] Symmetry computation done. time: 0.00126997 dtime: 0.00179973
[SAT presolve] num removable Booleans: 220 / 626
[SAT presolve] num trivial clauses: 0
[SAT presolve] [0s] clauses:2'724 literals:7'408 vars:506 one_side_vars:66 simple_definition:1 singleton_clauses:0
[SAT presolve] [0.000240779s] clauses:2'723 literals:7'401 vars:506 one_side_vars:66 simple_definition:1 singleton_clauses:0
[SAT presolve] [0.000635215s] clauses:2'402 literals:6'896 vars:389 one_side_vars:68 simple_definition:24 singleton_clauses:0
  1.24e-04s  0.00e+00d  [DetectDuplicateConstraintsWithDifferentEnforcements] 
  5.85e-03s  2.75e-03d  [Probe] #probed=1'304 #fixed_bools=12 #equiv=9 #new_binary_clauses=948 
  5.68e-04s  4.02e-04d  [MaxClique] Merged 653 constraints with 1'435 literals into 578 constraints with 1'308 literals
  9.47e-04s  0.00e+00d  [DetectDominanceRelations] 
  3.35e-03s  0.00e+00d  [PresolveToFixPoint] #num_loops=1 #num_dual_strengthening=1 
  1.21e-03s  0.00e+00d  [ProcessAtMostOneAndLinear] 
  1.08e-04s  0.00e+00d  [DetectDuplicateConstraints] #duplicates=6 
  8.74e-05s  0.00e+00d  [DetectDuplicateConstraintsWithDifferentEnforcements] 
  2.47e-03s  8.75e-05d  [DetectDominatedLinearConstraints] #relevant_constraints=834 #num_inclusions=438 #num_redundant=7 
  1.28e-04s  0.00e+00d  [DetectDifferentVariables] 
  8.28e-04s  9.06e-05d  [ProcessSetPPC] #relevant_constraints=3'156 #num_inclusions=231 
  3.16e-04s  3.41e-05d  [TransformClausesToExactlyOne] #num_amos=576 #num_clauses=1'759 #num_checked=1'759 
  3.90e-05s  0.00e+00d  [DetectEncodedComplexDomains] 
  3.23e-05s  0.00e+00d  [FindAlmostIdenticalLinearConstraints] 
  1.03e-03s  1.43e-03d  [FindBigAtMostOneAndLinearOverlap] 
  1.54e-03s  1.17e-03d  [FindBigVerticalLinearOverlap] #blocks=3 #saved_nz=132 
  3.66e-04s  6.23e-04d  [FindBigHorizontalLinearOverlap] #linears=460 
  3.55e-04s  2.78e-05d  [MergeClauses] #num_collisions=9 #num_merges=9 #num_saved_literals=39 
  9.56e-04s  0.00e+00d  [DetectDominanceRelations] 
  3.37e-03s  0.00e+00d  [PresolveToFixPoint] #num_loops=2 #num_dual_strengthening=1 
  9.36e-04s  0.00e+00d  [DetectDominanceRelations] 
  3.18e-03s  0.00e+00d  [PresolveToFixPoint] #num_loops=1 #num_dual_strengthening=1 
  1.77e-04s  0.00e+00d  [DetectDuplicateColumns] 
  1.07e-04s  0.00e+00d  [DetectDuplicateConstraints] 
[Symmetry] Graph for symmetry has 4'543 nodes and 14'152 arcs.
[Symmetry] Symmetry computation done. time: 0.00108192 dtime: 0.00150048
[SAT presolve] num removable Booleans: 102 / 497
[SAT presolve] num trivial clauses: 0
[SAT presolve] [0s] clauses:2'325 literals:6'724 vars:470 one_side_vars:144 simple_definition:43 singleton_clauses:0
[SAT presolve] [0.00025568s] clauses:2'322 literals:6'554 vars:470 one_side_vars:158 simple_definition:87 singleton_clauses:0
[SAT presolve] [0.000404572s] clauses:2'186 literals:6'257 vars:464 one_side_vars:183 simple_definition:68 singleton_clauses:0
  1.60e-04s  0.00e+00d  [DetectDuplicateConstraintsWithDifferentEnforcements] #without_enforcements=1 
  5.89e-03s  2.02e-03d  [Probe] #probed=1'310 #new_binary_clauses=614 
  4.56e-04s  3.35e-04d  [MaxClique] Merged 507 constraints with 1'105 literals into 502 constraints with 1'105 literals
  9.35e-04s  0.00e+00d  [DetectDominanceRelations] 
  3.20e-03s  0.00e+00d  [PresolveToFixPoint] #num_loops=1 #num_dual_strengthening=1 
  1.15e-03s  0.00e+00d  [ProcessAtMostOneAndLinear] 
  9.98e-05s  0.00e+00d  [DetectDuplicateConstraints] 
  8.85e-05s  0.00e+00d  [DetectDuplicateConstraintsWithDifferentEnforcements] 
  1.38e-03s  6.54e-05d  [DetectDominatedLinearConstraints] #relevant_constraints=822 #num_inclusions=339 
  1.29e-04s  0.00e+00d  [DetectDifferentVariables] 
  7.96e-04s  7.60e-05d  [ProcessSetPPC] #relevant_constraints=3'093 #num_inclusions=110 
  3.09e-04s  3.29e-05d  [TransformClausesToExactlyOne] #num_amos=504 #num_clauses=1'717 #num_checked=1'717 
  1.45e-04s  0.00e+00d  [DetectEncodedComplexDomains] 
  3.65e-05s  9.00e-08d  [FindAlmostIdenticalLinearConstraints] #num_tested_pairs=1 
  9.42e-04s  1.23e-03d  [FindBigAtMostOneAndLinearOverlap] 
  1.44e-03s  1.09e-03d  [FindBigVerticalLinearOverlap] #blocks=1 #saved_nz=34 
  3.59e-04s  5.93e-04d  [FindBigHorizontalLinearOverlap] #linears=458 
  3.67e-04s  2.66e-05d  [MergeClauses] #num_collisions=73 #num_merges=73 #num_saved_literals=196 
  9.54e-04s  0.00e+00d  [DetectDominanceRelations] 
  3.34e-03s  0.00e+00d  [PresolveToFixPoint] #num_loops=2 #num_dual_strengthening=1 
  9.42e-04s  0.00e+00d  [DetectDominanceRelations] 
  3.16e-03s  0.00e+00d  [PresolveToFixPoint] #num_loops=1 #num_dual_strengthening=1 
  1.81e-04s  0.00e+00d  [DetectDuplicateColumns] 
  9.68e-05s  0.00e+00d  [DetectDuplicateConstraints] 
[Symmetry] Graph for symmetry has 4'359 nodes and 13'428 arcs.
[Symmetry] Symmetry computation done. time: 0.00102979 dtime: 0.0013791
[SAT presolve] num removable Booleans: 96 / 494
[SAT presolve] num trivial clauses: 0
[SAT presolve] [0s] clauses:2'186 literals:6'257 vars:468 one_side_vars:183 simple_definition:70 singleton_clauses:0
[SAT presolve] [0.000218665s] clauses:2'185 literals:6'253 vars:468 one_side_vars:183 simple_definition:70 singleton_clauses:0
[SAT presolve] [0.00028893s] clauses:2'185 literals:6'253 vars:468 one_side_vars:183 simple_definition:70 singleton_clauses:0
  1.58e-04s  0.00e+00d  [DetectDuplicateConstraintsWithDifferentEnforcements] 
  5.77e-03s  2.04e-03d  [Probe] #probed=1'316 #new_binary_clauses=626 
  4.37e-04s  3.41e-04d  [MaxClique] Merged 505 constraints with 1'101 literals into 504 constraints with 1'100 literals
  9.55e-04s  0.00e+00d  [DetectDominanceRelations] 
  3.26e-03s  0.00e+00d  [PresolveToFixPoint] #num_loops=1 #num_dual_strengthening=1 
  1.14e-03s  0.00e+00d  [ProcessAtMostOneAndLinear] 
  1.04e-04s  0.00e+00d  [DetectDuplicateConstraints] 
  9.22e-05s  0.00e+00d  [DetectDuplicateConstraintsWithDifferentEnforcements] 
  1.19e-03s  6.27e-05d  [DetectDominatedLinearConstraints] #relevant_constraints=820 #num_inclusions=327 
  1.31e-04s  0.00e+00d  [DetectDifferentVariables] 
  7.94e-04s  7.52e-05d  [ProcessSetPPC] #relevant_constraints=3'099 #num_inclusions=109 
  3.02e-04s  3.31e-05d  [TransformClausesToExactlyOne] #num_amos=504 #num_clauses=1'723 #num_checked=1'723 
  1.69e-04s  0.00e+00d  [DetectEncodedComplexDomains] 
  4.24e-05s  1.00e-07d  [FindAlmostIdenticalLinearConstraints] #num_tested_pairs=1 
  9.17e-04s  1.19e-03d  [FindBigAtMostOneAndLinearOverlap] 
  1.39e-03s  1.06e-03d  [FindBigVerticalLinearOverlap] #blocks=1 #saved_nz=40 
  3.49e-04s  5.58e-04d  [FindBigHorizontalLinearOverlap] #linears=456 
  3.75e-04s  2.66e-05d  [MergeClauses] #num_collisions=73 #num_merges=73 #num_saved_literals=196 
  9.77e-04s  0.00e+00d  [DetectDominanceRelations] 
  3.39e-03s  0.00e+00d  [PresolveToFixPoint] #num_loops=2 #num_dual_strengthening=1 
  2.23e-05s  0.00e+00d  [MergeNoOverlap] 
  2.13e-05s  0.00e+00d  [MergeNoOverlap2D] 

Presolve summary:
  - 39 affine relations were detected.
  - rule 'TODO dual: only one blocking constraint?' was applied 847 times.
  - rule 'TODO linear inclusion: superset is equality' was applied 188 times.
  - rule 'affine: new relation' was applied 39 times.
  - rule 'at_most_one: removed literals' was applied 61 times.
  - rule 'at_most_one: size one' was applied 60 times.
  - rule 'at_most_one: transformed into max clique' was applied 3 times.
  - rule 'bool_or: implications' was applied 72 times.
  - rule 'bool_or: only one literal' was applied 12 times.
  - rule 'bool_or: removed enforcement literal' was applied 597 times.
  - rule 'deductions: 888 stored' was applied 1 time.
  - rule 'duplicate: merged rhs of linear constraint' was applied 10 times.
  - rule 'duplicate: removed constraint' was applied 11 times.
  - rule 'duplicate: removed enforced constraint' was applied 1 time.
  - rule 'enforcement: false literal' was applied 34 times.
  - rule 'enforcement: true literal' was applied 8 times.
  - rule 'exactly_one: removed literals' was applied 32 times.
  - rule 'exactly_one: satisfied' was applied 3 times.
  - rule 'exactly_one: singleton' was applied 2 times.
  - rule 'exactly_one: size two' was applied 30 times.
  - rule 'exactly_one: x and not(x)' was applied 6 times.
  - rule 'incompatible linear: add implication' was applied 126 times.
  - rule 'linear + amo: empty after processing' was applied 6 times.
  - rule 'linear + amo: extracted enforcement literal' was applied 54 times.
  - rule 'linear inclusion: redundant containing constraint' was applied 3 times.
  - rule 'linear inclusion: redundant included constraint' was applied 3 times.
  - rule 'linear inclusion: sparsify superset' was applied 1 time.
  - rule 'linear matrix: common vertical rectangle' was applied 5 times.
  - rule 'linear1: x in domain' was applied 26 times.
  - rule 'linear2: convert ax + by != cte to clauses' was applied 261 times.
  - rule 'linear2: convert implied ax + by == cte to clauses' was applied 124 times.
  - rule 'linear2: implied ax + by = cte has only one solution' was applied 8 times.
  - rule 'linear: always true' was applied 418 times.
  - rule 'linear: empty' was applied 1 time.
  - rule 'linear: extracted at most one (max)' was applied 1 time.
  - rule 'linear: fixed or dup variables' was applied 879 times.
  - rule 'linear: negative clause' was applied 1'293 times.
  - rule 'linear: negative reified and' was applied 78 times.
  - rule 'linear: never in domain' was applied 6 times.
  - rule 'linear: positive at most one' was applied 34 times.
  - rule 'linear: reduced variable domains' was applied 6 times.
  - rule 'linear: remapped using affine relations' was applied 22 times.
  - rule 'new_bool: integer encoding' was applied 15 times.
  - rule 'presolve: 78 unused variables removed.' was applied 1 time.
  - rule 'presolve: iteration' was applied 3 times.
  - rule 'probing: bool_or reduced to implication' was applied 29 times.
  - rule 'probing: simplified clauses' was applied 9 times.
  - rule 'setppc: bool_or in at_most_one' was applied 7 times.
  - rule 'setppc: removed dominated constraints' was applied 87 times.
  - rule 'variables: add encoding constraint' was applied 15 times.

Presolved satisfaction model '': (model_fingerprint: 0xce3fd1af67162fb0)
#Variables: 502 (436 primary variables)
  - 497 Booleans in [0,1]
  - 5 in [0,2]
#kAtMostOne: 44 (#literals: 180)
#kBoolAnd: 280 (#enforced: 280) (#literals: 743)
#kBoolAndClauses: 73 (#enforced: 73 #multi: 73) (#literals: 342)
#kBoolOr: 1'585 (#literals: 4'815)
#kExactlyOne: 52 (#literals: 198)
#kLinear1: 30 (#enforced: 30)
#kLinearN: 818 (#enforced: 122) (#terms: 5'746)
[Symmetry] Graph for symmetry has 4'138 nodes and 13'423 arcs.
[Symmetry] Symmetry computation done. time: 0.000868402 dtime: 0.0013981

Preloading model.
#Model   0.10s var:502/502 constraints:2882/2882

Starting search at 0.10s with 4 workers.
3 full problem subsolvers: [default_lp, max_lp, no_lp]
1 first solution subsolver: [fj]
2 interleaved subsolvers: [feasibility_pump, rins/rens]
2 helper subsolvers: [neighborhood_helper, synchronization_agent]

#Model 225.02s var:501/502 constraints:2880/2882
#Model 5236.27s var:500/502 constraints:2878/2882

Task timing                   n [     min,      max]      avg      dev     time         n [     min,      max]      avg      dev    dtime
        'default_lp':         1 [   1.93h,    1.93h]    1.93h   0.00ns    1.93h         2 [  2.11ms,    1.75h]   52.40m   52.40m    1.75h
  'feasibility_pump':     34381 [719.14us, 158.45ms]   1.76ms 928.75us    1.01m     34380 [293.72us, 142.20ms] 299.83us 765.33us   10.31s
                'fj':     25807 [100.37ms, 215.24ms] 133.22ms   9.64ms   57.30m     25807 [ 92.81ms, 100.14ms] 100.02ms  46.88us   43.02m
            'max_lp':         1 [   1.93h,    1.93h]    1.93h   0.00ns    1.93h         2 [108.31ms,    2.58h]    1.29h    1.29h    2.58h
             'no_lp':         1 [   1.93h,    1.93h]    1.93h   0.00ns    1.93h         2 [  1.92ms,    3.57h]    1.78h    1.78h    3.57h
         'rins/rens':     32773 [ 21.01ms, 214.41ms] 104.91ms  38.98ms   57.30m     32773 [201.01us, 100.44ms]  67.70ms  37.59ms   36.98m

Search stats     Bools   Conflicts    Branches  Restarts  BacktrackToRoot   Backtrack     BoolPropag  IntegerPropag
  'default_lp':    497     580'776  12'974'839     3'218        1'988'278   3'033'085    141'144'744    165'046'399
      'max_lp':    497     210'668  18'586'743     1'259        2'912'941   3'773'904    192'192'705    248'330'343
       'no_lp':    497  42'206'545  54'713'332   136'619          877'250  42'799'864  3'630'784'596    919'210'474

SAT formula      Fixed  Equiv  Total  VarLeft  BinaryClauses  PermanentClauses  TemporaryClauses
  'default_lp':      2      2    497      493          2'714            73'892             6'801
      'max_lp':      2      2    497      493          2'714            73'262            11'922
       'no_lp':      2      2    497      493          2'714           211'415            10'883

SAT stats        ClassicMinim   LitRemoved  LitRemovedBinary     LitLearned  LitForgotten    Subsumed
  'default_lp':       514'554    6'760'216         3'987'303     19'966'450    14'558'168     185'885
      'max_lp':       183'849    2'597'909         1'292'487      6'076'710     4'098'308      62'524
       'no_lp':    38'168'287  728'401'731       234'531'589  1'068'008'956   855'256'708  11'443'845

Vivification       Clauses   Decisions  LitTrue  Subsumed  LitRemoved  DecisionReused  Conflicts
  'default_lp':  1'944'539  11'706'472        1    19'526     220'340         463'474      1'586
      'max_lp':  2'790'780  17'524'561        0    21'343     239'579         580'157      1'568
       'no_lp':    590'858   5'085'202        0    37'519     508'276         136'013      1'406

Clause deletion    at_true  l_and_not(l)  to_binary  sub_conflict  sub_extra  sub_decisions  sub_eager  sub_vivify  sub_probing  sub_inpro  blocked  eliminated   forgotten    promoted   conflicts
    'default_lp':      100             0          3       183'463      1'352          5'042      2'422      19'526        1'022     11'804        0           0     367'702   1'155'448     580'776
        'max_lp':      101             0          2        61'828        509          1'461        696      21'343          958      5'325        0           0     125'543     421'022     210'668
         'no_lp':      126             0          3    11'260'417     69'378        462'348    183'428      37'519        1'587    115'124        0           0  29'863'635  94'752'241  42'206'545

Lp stats         Component  Iterations  AddedCuts  OPTIMAL  DUAL_F.  DUAL_U.
  'default_lp':          1  78'447'031    220'151  878'474        1  506'982
      'max_lp':          1  41'321'182    173'771   80'055  178'522   80'626

Lp dimension        Final dimension of first component
  'default_lp':   370 rows, 344 columns, 12630 entries
      'max_lp':  1374 rows, 502 columns, 20387 entries

Lp debug         CutPropag  CutEqPropag   Adjust  Overflow        Bad  BadScaling
  'default_lp':          0          205  506'980         0  6'093'801           0
      'max_lp':          0          756   80'607         0  5'273'985           0

Lp pool          Constraints  Updates  Simplif  Merged  Shortened  Split  Strengthened        Cuts/Call
  'default_lp':        9'920   40'421        0       0          0      0             1  220'151/274'130
      'max_lp':       12'976   48'134        0       8         35      0         4'113  173'771/262'854

Lp Cut            default_lp   max_lp
          CG_FF:       4'669      208
           CG_K:       2'574       37
          CG_KL:       2'487        4
           CG_R:       5'049      145
          CG_RB:          56       15
         CG_RBP:          18        -
         Clique:           -      494
             IB:         249       18
       MIR_1_FF:       1'728    1'352
        MIR_1_K:         421       27
       MIR_1_KL:       1'337       46
        MIR_1_R:       1'680      397
       MIR_1_RB:           1        2
      MIR_1_RBP:           1        -
      MIR_1_RLT:           -   22'312
       MIR_2_FF:       1'778    1'405
        MIR_2_K:         426      267
       MIR_2_KL:       1'131      142
        MIR_2_R:       2'377      999
       MIR_2_RB:          30       70
      MIR_2_RBP:          27       41
       MIR_3_FF:         860      478
        MIR_3_K:         189       83
       MIR_3_KL:         318       41
        MIR_3_R:       1'244      425
       MIR_3_RB:          37       66
      MIR_3_RBP:          33       35
       MIR_4_FF:         273      136
        MIR_4_K:          94       22
       MIR_4_KL:          94       11
        MIR_4_R:         856      282
       MIR_4_RB:          30       44
      MIR_4_RBP:          22       30
       MIR_5_FF:          96       40
        MIR_5_K:          47        9
       MIR_5_KL:          12        3
        MIR_5_R:         553      250
       MIR_5_RB:          18       31
      MIR_5_RBP:          17       23
       MIR_6_FF:          74       18
        MIR_6_K:          38        3
       MIR_6_KL:           4        -
        MIR_6_R:         446      227
       MIR_6_RB:          13       24
      MIR_6_RBP:          10       17
   ZERO_HALF_FF:       1'057    1'204
    ZERO_HALF_K:         359       42
   ZERO_HALF_KL:         428       13
    ZERO_HALF_R:     186'799  142'086
   ZERO_HALF_RB:          47        2
  ZERO_HALF_RBP:          44      145

LNS stats       Improv/Calls  Closed  Difficulty  TimeLimit
  'rins/rens':   32773/32773     50%    7.48e-01       0.10

LS stats                                    Batches  Restarts/Perturbs    LinMoves    GenMoves  CompoundMoves   Bactracks  WeightUpdates  ScoreComputed
                             'fj_restart':    1'545                302  48'756'396           0              0           0     40'557'615     76'105'040
                    'fj_restart_compound':    1'946                301           0  21'601'472        833'032  10'383'611         65'050    351'117'474
                'fj_restart_compound_obj':    1'042                306           0  11'552'018        718'841   5'416'028         26'673    187'629'407
            'fj_restart_compound_perturb':    1'060                303           0  11'760'710        718'729   5'520'431         27'134    190'747'495
        'fj_restart_compound_perturb_obj':    1'281                313           0  14'342'779        764'514   6'788'587         35'580    230'710'831
                       'fj_restart_decay':    1'962                289  65'368'155           0              0           0      2'697'802     34'925'050
              'fj_restart_decay_compound':    2'186                301           0  28'033'285      4'590'714  11'720'574         28'160    403'047'816
          'fj_restart_decay_compound_obj':    1'368                292           0  16'871'017      2'804'074   7'032'696         17'796    251'371'347
      'fj_restart_decay_compound_perturb':    2'248                305           0  28'623'607      4'733'809  11'944'229         28'970    414'191'626
  'fj_restart_decay_compound_perturb_obj':    1'802                291           0  22'783'566      3'780'258   9'500'967         23'439    331'790'820
                   'fj_restart_decay_obj':    1'325                300  44'154'495           0              0           0      1'820'578     23'553'574
               'fj_restart_decay_perturb':    2'276                314  75'865'050           0              0           0      3'128'635     40'520'158
           'fj_restart_decay_perturb_obj':    1'249                316  41'632'733           0              0           0      1'716'488     22'212'715
                         'fj_restart_obj':    1'842                317  61'007'598           0              0           0     46'731'102     85'216'996
                     'fj_restart_perturb':    1'006                280  33'115'096           0              0           0     26'075'651     46'443'978
                 'fj_restart_perturb_obj':    1'669                311  55'506'732           0              0           0     42'875'074     78'557'558

Solution repositories    Added  Queried  Synchro
    'alternative_path':      0        0        0
      'best_solutions':      0        0        0
   'fj solution hints':  4'833        0    4'833
        'lp solutions':  2'536   32'773    2'526
                'pump':      0        0

Improving bounds shared    Num  Sym
            'default_lp':    1    0
                 'no_lp':    1    0

Clauses shared    #Exported  #Imported  #BinaryRead  #BinaryTotal
   'default_lp':      3'696     90'865          341           341
       'max_lp':      3'894     90'494          341           341
        'no_lp':     89'209      8'514          341           341

LRAT_status: NA
CpSolverResponse summary:
status: UNKNOWN
objective: NA
best_bound: NA
integers: 356
booleans: 497
conflicts: 42206545
branches: 54713332
propagations: 3630784596
integer_propagations: 919210474
restarts: 136619
lp_iterations: 0
walltime: 6940.07
usertime: 6940.07
deterministic_time: 33214.3
gap_integral: 0

{
  "board_size": 22,
  "parity_proved": 0,
  "target": 34,
  "child_id": 1552,
  "child_count": 2640,
  "partition": "unknown_pair_x_diag_plus_twos_x_diag_minus_twos",
  "build_seconds": 0.07926106452941895,
  "workers": 4,
  "requested_seed": 2026073752,
  "effective_seed": 2026073752,
  "main_diagonal_pair": [
    3,
    17
  ],
  "pair_index": 70,
  "diag_plus_twos": 16,
  "diag_minus_twos": 16,
  "pair_excess": 0,
  "residual_certificate_slack": 112,
  "analytic_minimum_line_defect": 24,
  "analytic_defect_details": {
    "row_costs": {
      "12": 6,
      "13": 3,
      "14": 0,
      "15": 0,
      "16": 0,
      "17": 0
    },
    "column_costs": {
      "12": 6,
      "13": 3,
      "14": 0,
      "15": 0,
      "16": 0,
      "17": 0
    },
    "plus_cost": 24,
    "minus_cost": 0,
    "row_column_minimum": 0
  },
  "maximal_line_constraints": 2455,
  "analytic_infeasible": false,
  "allowed_points": 242,
  "status": "UNKNOWN",
  "proof_method": "cp_sat_all_lines_with_certificate_profile_cuts",
  "elapsed_seconds": 6940.067691326141,
  "branches": 54713332,
  "conflicts": 42206545
}
